Shadow_BDPT/Simon_16_1.lp
Minimize
Subject To
x_0_0 - u_0_0 - v_0_0 - w_0_0 - y_1_0 = 0
x_0_1 - u_0_1 - v_0_1 - w_0_1 - y_1_1 = 0
x_0_2 - u_0_2 - v_0_2 - w_0_2 - y_1_2 = 0
x_0_3 - u_0_3 - v_0_3 - w_0_3 - y_1_3 = 0
x_0_4 - u_0_4 - v_0_4 - w_0_4 - y_1_4 = 0
x_0_5 - u_0_5 - v_0_5 - w_0_5 - y_1_5 = 0
x_0_6 - u_0_6 - v_0_6 - w_0_6 - y_1_6 = 0
x_0_7 - u_0_7 - v_0_7 - w_0_7 - y_1_7 = 0
t_0_0 - u_0_1 >= 0
t_0_0 - v_0_0 >= 0
t_0_0 - u_0_1 - v_0_0 <= 0
t_0_1 - u_0_2 >= 0
t_0_1 - v_0_1 >= 0
t_0_1 - u_0_2 - v_0_1 <= 0
t_0_2 - u_0_3 >= 0
t_0_2 - v_0_2 >= 0
t_0_2 - u_0_3 - v_0_2 <= 0
t_0_3 - u_0_4 >= 0
t_0_3 - v_0_3 >= 0
t_0_3 - u_0_4 - v_0_3 <= 0
t_0_4 - u_0_5 >= 0
t_0_4 - v_0_4 >= 0
t_0_4 - u_0_5 - v_0_4 <= 0
t_0_5 - u_0_6 >= 0
t_0_5 - v_0_5 >= 0
t_0_5 - u_0_6 - v_0_5 <= 0
t_0_6 - u_0_7 >= 0
t_0_6 - v_0_6 >= 0
t_0_6 - u_0_7 - v_0_6 <= 0
t_0_7 - u_0_0 >= 0
t_0_7 - v_0_7 >= 0
t_0_7 - u_0_0 - v_0_7 <= 0
x_1_0 - y_0_0 - t_0_0 - w_0_2 = 0
x_1_1 - y_0_1 - t_0_1 - w_0_3 = 0
x_1_2 - y_0_2 - t_0_2 - w_0_4 = 0
x_1_3 - y_0_3 - t_0_3 - w_0_5 = 0
x_1_4 - y_0_4 - t_0_4 - w_0_6 = 0
x_1_5 - y_0_5 - t_0_5 - w_0_7 = 0
x_1_6 - y_0_6 - t_0_6 - w_0_0 = 0
x_1_7 - y_0_7 - t_0_7 - w_0_1 = 0
x_0_0 = 0
x_0_1 = 1
x_0_2 = 1
x_0_3 = 1
x_0_4 = 1
x_0_5 = 1
x_0_6 = 1
x_0_7 = 1
y_0_0 = 1
y_0_1 = 1
y_0_2 = 1
y_0_3 = 1
y_0_4 = 1
y_0_5 = 1
y_0_6 = 1
y_0_7 = 1
x_1_0 = 0
x_1_1 = 0
x_1_2 = 0
x_1_3 = 0
x_1_4 = 0
x_1_5 = 0
x_1_6 = 0
x_1_7 = 0
y_1_0 = 0
y_1_1 = 0
y_1_2 = 0
y_1_3 = 0
y_1_4 = 0
y_1_5 = 0
y_1_6 = 0
y_1_7 = 0
Binary
x_0_0
x_0_1
x_0_2
x_0_3
x_0_4
x_0_5
x_0_6
x_0_7
y_0_0
y_0_1
y_0_2
y_0_3
y_0_4
y_0_5
y_0_6
y_0_7
u_0_0
u_0_1
u_0_2
u_0_3
u_0_4
u_0_5
u_0_6
u_0_7
v_0_0
v_0_1
v_0_2
v_0_3
v_0_4
v_0_5
v_0_6
v_0_7
w_0_0
w_0_1
w_0_2
w_0_3
w_0_4
w_0_5
w_0_6
w_0_7
t_0_0
t_0_1
t_0_2
t_0_3
t_0_4
t_0_5
t_0_6
t_0_7
x_1_0
x_1_1
x_1_2
x_1_3
x_1_4
x_1_5
x_1_6
x_1_7
y_1_0
y_1_1
y_1_2
y_1_3
y_1_4
y_1_5
y_1_6
y_1_7
END